
List of user-set options:

                                    Name   Value                used
                           compl_inf_tol = 1                     yes
                         constr_viol_tol = 1                     yes
                            dual_inf_tol = 1000                  yes
                           linear_solver = ma97                  yes
                              ma86_small = 1e-30                  no
                                  ma86_u = 0.0001                 no
                              ma97_order = best                  yes
                              ma97_small = 1e-30                 yes
                            ma97_switch1 = at_start              yes
                            ma97_switch2 = od_hd_reuse           yes
                                  ma97_u = 1e-06                 yes
                               ma97_umax = 0.5                   yes
                                max_iter = 2000                  yes
                    max_refinement_steps = 20                    yes
                    min_refinement_steps = 5                     yes
                                 mu_init = 1e-06                 yes
           mu_superlinear_decrease_power = 1.25                  yes
                   nlp_scaling_min_value = 1e-08                 yes
                        option_file_name = Preset_Case:_22_NCP.opt  yes
                             output_file = ./tmp/Preset_Case:_22_NCP.output  yes
                      print_user_options = yes                   yes
        required_infeasibility_reduction = 1                      no
                                     tol = 1e-08                 yes
                   warm_start_bound_frac = 1e-20                 yes
                   warm_start_bound_push = 1e-20                 yes
                   warm_start_init_point = yes                   yes
              warm_start_mult_bound_push = 1e-20                 yes
                warm_start_mult_init_max = 1e+40                 yes
             warm_start_slack_bound_frac = 1e-20                 yes
             warm_start_slack_bound_push = 1e-20                 yes

******************************************************************************
This program contains Ipopt, a library for large-scale nonlinear optimization.
 Ipopt is released as open source code under the Eclipse Public License (EPL).
         For more information visit http://projects.coin-or.org/Ipopt
******************************************************************************

This is Ipopt version 3.12.10, running with linear solver ma97.

Number of nonzeros in equality constraint Jacobian...:   117140
Number of nonzeros in inequality constraint Jacobian.:      213
Number of nonzeros in Lagrangian Hessian.............:    47462

Total number of variables............................:    29971
                     variables with only lower bounds:    11312
                variables with lower and upper bounds:    15132
                     variables with only upper bounds:        0
Total number of equality constraints.................:    29864
Total number of inequality constraints...............:       25
        inequality constraints with only lower bounds:        4
   inequality constraints with lower and upper bounds:        0
        inequality constraints with only upper bounds:       21

iter    objective    inf_pr   inf_du lg(mu)  ||d||  lg(rg) alpha_du alpha_pr  ls
   0 -5.3842572e-02 7.41e-02 1.82e+02  -6.0 0.00e+00    -  0.00e+00 0.00e+00   0
In iteration 0, 3 Slacks too small, adjusting variable bounds
   1 -5.3842572e-02 7.41e-02 9.33e+03  -6.0 5.93e+05  -2.0 2.10e-08 4.93e-16f  1
   2 -5.3844235e-02 7.41e-02 9.33e+03  -6.0 1.16e+03  -2.5 9.76e-05 5.78e-05f  1
   3 -5.3882402e-02 7.41e-02 9.33e+03  -6.0 1.05e+03  -3.0 1.95e-05 3.25e-04f  1
   4 -5.3888022e-02 7.41e-02 9.33e+03  -6.0 1.15e+03  -2.5 4.02e-05 1.39e-04f  1
   5 -5.4116013e-02 7.38e-02 9.33e+03  -6.0 1.07e+03  -3.0 5.70e-05 4.00e-03f  1
   6 -5.4120136e-02 7.38e-02 9.33e+03  -6.0 1.18e+03  -2.6 1.80e-04 2.01e-04h  1
   7 -5.4239512e-02 7.34e-02 1.38e+04  -6.0 1.17e+03  -3.1 9.49e-04 4.44e-03f  1
   8 -5.4246195e-02 7.34e-02 1.58e+04  -6.0 1.16e+03  -2.6 4.04e-04 8.79e-04f  1
   9 -5.4243898e-02 7.34e-02 9.26e+03  -6.0 1.17e+03  -3.1 6.45e-03 1.01e-04h  1
iter    objective    inf_pr   inf_du lg(mu)  ||d||  lg(rg) alpha_du alpha_pr  ls
  10 -5.4300047e-02 7.19e-02 8.00e+04  -6.0 1.15e+03  -2.7 6.55e-04 1.97e-02f  1
  11 -5.4278720e-02 7.19e-02 7.99e+04  -6.0 8.28e+02  -3.2 1.26e-04 2.47e-04h  2
  12r-5.4278720e-02 7.19e-02 1.00e+03  -1.1 0.00e+00  -2.7 0.00e+00 4.01e-07R  4
  13r-5.4257657e-02 7.19e-02 1.00e+03  -1.1 1.77e+06    -  1.38e-07 1.57e-07f  1
  14r-5.4257657e-02 7.19e-02 9.99e+02  -1.1 0.00e+00    -  0.00e+00 2.39e-07R  2
  15r-5.4268285e-02 7.19e-02 9.99e+02  -1.1 4.53e+03    -  2.93e-06 8.22e-07f  1
  16 -5.4268278e-02 7.19e-02 1.41e+07  -6.0 2.02e+01    -  1.65e-01 6.04e-05h  1
  17 -5.4272266e-02 7.17e-02 3.96e+08  -6.0 9.35e+02    -  6.24e-05 1.76e-03h  1
  18 -5.4267295e-02 7.12e-02 3.93e+08  -6.0 9.20e+02    -  8.29e-04 7.28e-03h  1
  19 -5.4286048e-02 7.08e-02 3.91e+08  -6.0 9.07e+02    -  1.71e-02 5.43e-03f  1
iter    objective    inf_pr   inf_du lg(mu)  ||d||  lg(rg) alpha_du alpha_pr  ls
  20 -5.4282573e-02 7.03e-02 3.88e+08  -6.0 8.47e+02    -  7.46e-03 8.02e-03f  3
  21 -5.4265907e-02 7.00e-02 3.85e+08  -6.0 7.94e+02    -  5.51e-02 7.02e-03h  3
  22 -5.4240650e-02 7.02e-02 3.82e+08  -6.0 7.47e+02    -  7.07e-02 7.46e-03h  4
  23 -5.4164383e-02 7.08e-02 3.76e+08  -6.0 7.02e+02    -  9.03e-02 1.52e-02h  4
  24 -5.4082121e-02 7.09e-02 3.72e+08  -6.0 6.28e+02    -  1.15e-01 1.26e-02h  5
  25 -5.4001262e-02 7.09e-02 3.68e+08  -6.0 5.80e+02    -  1.44e-01 1.06e-02h  5
  26 -5.3931908e-02 7.09e-02 3.65e+08  -6.0 5.48e+02    -  1.61e-01 7.86e-03h  5
  27 -5.3875962e-02 7.10e-02 3.63e+08  -6.0 5.30e+02    -  1.47e-01 5.64e-03h  5
  28 -5.3822082e-02 7.12e-02 3.61e+08  -6.0 5.27e+02    -  3.28e-02 4.96e-03h  5
  29 -5.3773239e-02 7.14e-02 3.59e+08  -6.0 5.16e+02    -  2.21e-01 4.50e-03h  5
iter    objective    inf_pr   inf_du lg(mu)  ||d||  lg(rg) alpha_du alpha_pr  ls
  30 -5.3102928e-02 2.73e-01 3.38e+08  -6.0 5.43e+02    -  2.94e-02 5.85e-02w  1
  31 -5.1545017e-02 1.20e+00 2.76e+08  -6.0 3.94e+02    -  3.47e-01 1.83e-01w  1
  32 -5.0166378e-02 2.19e+00 1.96e+08  -6.0 1.96e+02    -  4.38e-01 2.91e-01w  1
  33 -5.3731345e-02 7.15e-02 3.58e+08  -6.0 6.34e+02    -  2.94e-02 3.66e-03h  4
  34 -5.3694514e-02 7.15e-02 3.57e+08  -6.0 5.39e+02    -  2.49e-01 3.27e-03h  5
  35 -5.3637327e-02 7.18e-02 3.55e+08  -6.0 6.15e+02    -  2.89e-02 5.33e-03h  4
  36 -5.3586816e-02 7.18e-02 3.53e+08  -6.0 6.09e+02    -  2.88e-01 4.81e-03h  4
  37 -5.3562817e-02 7.17e-02 3.52e+08  -6.0 7.69e+02    -  3.25e-02 2.53e-03h  6
  38 -5.3547808e-02 7.16e-02 3.52e+08  -6.0 7.83e+02    -  2.42e-01 1.59e-03h  7
  39 -5.3532072e-02 7.15e-02 3.51e+08  -6.0 1.02e+03    -  3.37e-02 1.59e-03h  8
iter    objective    inf_pr   inf_du lg(mu)  ||d||  lg(rg) alpha_du alpha_pr  ls
  40 -5.3515774e-02 7.15e-02 3.51e+08  -6.0 1.05e+03    -  2.21e-01 1.60e-03h  8
  41 -5.3495439e-02 7.13e-02 3.50e+08  -6.0 1.38e+03    -  3.91e-02 1.63e-03h  8
  42 -5.3484328e-02 7.13e-02 3.50e+08  -6.0 1.43e+03    -  2.30e-01 8.34e-04h  9
  43 -5.0620612e-02 6.04e+00 2.96e+08  -6.0 1.91e+03    -  5.45e-02 1.53e-01w  1
  44 -4.2579726e-02 1.14e+01 1.78e+08  -6.0 8.88e+02    -  2.67e-01 3.98e-01w  1
  45 -4.2579076e-02 1.14e+01 1.78e+08  -6.0 1.19e+02  -3.2 8.81e-03 1.69e-04w  1
  46 -5.3461955e-02 7.12e-02 3.49e+08  -6.0 3.91e+01  -3.7 5.45e-02 1.19e-03h  7
  47 -5.3439210e-02 7.11e-02 3.49e+08  -6.0 2.01e+03    -  2.27e-01 1.10e-03h  8
  48 -5.3414471e-02 7.11e-02 3.49e+08  -6.0 2.58e+03    -  1.09e-01 8.32e-04h  8
  49 -5.3386669e-02 7.10e-02 3.48e+08  -6.0 2.85e+03    -  2.18e-01 7.89e-04h  8
iter    objective    inf_pr   inf_du lg(mu)  ||d||  lg(rg) alpha_du alpha_pr  ls
  50 -5.3361063e-02 7.10e-02 3.48e+08  -6.0 3.40e+03    -  1.15e-01 4.97e-04h  9
  51 -5.3347080e-02 7.10e-02 3.48e+08  -6.0 3.63e+03    -  2.06e-01 2.18e-04h 11
  52 -5.3332512e-02 7.10e-02 3.48e+08  -6.0 3.98e+03    -  5.66e-02 1.81e-04h 11
  53 -5.3317899e-02 7.09e-02 3.48e+08  -6.0 4.04e+03    -  1.95e-01 1.74e-04h 11
  54 -5.3306770e-02 7.09e-02 3.48e+08  -6.0 6.03e+03    -  3.39e-02 1.11e-04h 11
  55 -5.3296532e-02 7.09e-02 3.48e+08  -6.0 6.27e+03    -  1.41e-01 9.99e-05h 11
  56 -4.8090199e-02 5.51e-01 3.34e+08  -6.0 7.36e+03    -  2.11e-02 4.11e-02w  1
  57 -4.0712182e-02 2.89e+00 3.01e+08  -6.0 5.48e+03    -  4.69e-05 9.67e-02w  1
  58 -4.0712118e-02 2.89e+00 3.01e+08  -6.0 3.41e+03    -  9.23e-02 6.42e-06w  1
  59 -5.3286363e-02 7.09e-02 3.48e+08  -6.0 4.19e+03    -  2.11e-02 8.03e-05h  9
iter    objective    inf_pr   inf_du lg(mu)  ||d||  lg(rg) alpha_du alpha_pr  ls
  60 -5.3277269e-02 7.09e-02 3.48e+08  -6.0 7.41e+03    -  8.58e-02 6.83e-05h 10
  61 -5.3160161e-02 7.05e-02 3.46e+08  -6.0 5.77e+02  -4.2 9.73e-02 5.99e-03h  6
  62 -5.3110493e-02 7.04e-02 3.45e+08  -6.0 1.14e+03  -4.6 3.21e-01 1.67e-03h  8
  63 -5.3070289e-02 7.04e-02 3.45e+08  -6.0 3.02e+03  -5.1 1.23e-01 8.03e-04h  8
  64 -5.3055875e-02 7.04e-02 3.45e+08  -6.0 5.13e+03  -5.6 5.07e-02 1.65e-04h 11
  65 -5.3036614e-02 7.03e-02 3.45e+08  -6.0 3.33e+03  -5.2 2.45e-01 3.60e-04h  9
  66 -5.0920119e-02 7.44e-02 3.42e+08  -6.0 6.11e+03  -5.6 8.08e-03 8.08e-03s 16
  67 -4.9941432e-02 2.67e-01 3.37e+08  -6.0 9.35e+03    -  1.34e-02 1.34e-02s 16
  68 -4.8771841e-02 7.95e-01 3.30e+08  -6.0 8.68e+03    -  2.10e-02 2.10e-02s 16
  69 -4.7221991e-02 1.12e+00 3.25e+08  -6.0 8.02e+03    -  1.60e-02 1.60e-02s 16
iter    objective    inf_pr   inf_du lg(mu)  ||d||  lg(rg) alpha_du alpha_pr  ls
  70 -4.3715186e-02 2.97e+00 3.11e+08  -6.0 7.42e+03    -  4.30e-02 4.30e-02s 16
  71 -4.1262130e-02 3.23e+00 3.01e+08  -6.0 4.09e+03  -6.1 3.11e-02 3.11e-02s 16
  72 -4.1356624e-02 3.22e+00 3.00e+08  -6.0 5.50e+03    -  4.40e-03 4.40e-03s 16
  73 -4.1353003e-02 3.22e+00 3.00e+08  -6.0 5.67e+03    -  5.36e-04 5.36e-04s 16
  74 -4.1349770e-02 3.22e+00 3.00e+08  -6.0 5.66e+03    -  5.58e-04 5.58e-04s 16
  75 -4.0800584e-02 9.00e+00 2.71e+08  -6.0 5.64e+03    -  9.46e-02 9.46e-02s 16
  76 -4.1486586e-02 9.59e+00 2.49e+08  -6.0 3.44e+03    -  8.20e-02 8.20e-02s 16
  77r-4.1486586e-02 9.59e+00 1.00e+03   0.8 0.00e+00    -  0.00e+00 0.00e+00R  1
  78r-4.1485706e-02 9.58e+00 1.85e+03   0.8 2.75e+04    -  9.92e-07 5.47e-07f  1
  79r-4.1039747e-02 9.56e+00 1.85e+03   0.8 1.03e+04    -  1.73e-06 2.56e-06f  1
iter    objective    inf_pr   inf_du lg(mu)  ||d||  lg(rg) alpha_du alpha_pr  ls
  80 -4.1039617e-02 9.55e+00 1.37e+03  -6.0 4.63e+01    -  2.42e-03 5.04e-05h  1
  81 -4.1036940e-02 9.55e+00 2.55e+04  -6.0 1.28e+02    -  5.40e-05 9.88e-04h  1
  82 -4.1012650e-02 9.46e+00 2.53e+04  -6.0 1.28e+02    -  1.70e-02 8.97e-03h  1
  83 -4.0977096e-02 9.25e+00 2.48e+04  -6.0 1.27e+02    -  1.07e-02 2.18e-02h  1
  84 -4.0915659e-02 8.85e+00 2.37e+04  -6.0 1.21e+02    -  1.94e-02 4.39e-02h  1
  85 -4.0914301e-02 8.83e+00 2.37e+04  -6.0 1.12e+02    -  2.35e-01 1.43e-03h  6
  86 -4.0913695e-02 8.83e+00 2.37e+04  -6.0 1.12e+02    -  6.19e-02 6.81e-04h 10
  87 -4.0913654e-02 8.83e+00 2.37e+04  -6.0 1.11e+02    -  4.83e-01 4.60e-05h 14
  88 -4.0913642e-02 8.83e+00 2.37e+04  -6.0 1.12e+02    -  5.91e-02 1.53e-05h 16
  89 -4.0549721e-02 4.83e+00 1.30e+04  -6.0 1.12e+02    -  4.53e-01 4.53e-01s 21
iter    objective    inf_pr   inf_du lg(mu)  ||d||  lg(rg) alpha_du alpha_pr  ls
  90 -4.0436843e-02 3.27e+00 8.78e+03  -6.0 3.26e+01    -  3.23e-01 3.23e-01s 21
  91r-4.0436843e-02 3.27e+00 1.00e+03   0.4 0.00e+00    -  0.00e+00 0.00e+00R  1
  92r-4.0374772e-02 3.27e+00 9.59e+03   0.4 1.28e+04    -  4.24e-06 1.78e-06f  1
  93 -4.0374689e-02 3.27e+00 1.47e+07  -6.0 1.89e+01    -  3.61e-01 2.84e-04h  1
  94 -4.0367776e-02 3.12e+00 2.26e+09  -6.0 2.33e+01    -  2.87e-04 4.42e-02h  1
  95 -4.0273486e-02 3.05e+00 2.21e+09  -6.0 5.73e+01    -  8.43e-03 2.22e-02h  1
  96 -4.0205453e-02 2.66e+00 1.93e+09  -6.0 1.91e+01    -  7.27e-02 1.28e-01h  1
  97 -3.9836570e-02 1.84e+00 1.33e+09  -6.0 1.65e+01    -  1.31e-01 3.09e-01h  1
  98 -3.9534786e-02 1.24e+00 8.96e+08  -6.0 1.73e+01    -  2.13e-01 3.29e-01h  1
  99 -3.9209907e-02 2.58e-01 1.87e+08  -6.0 1.20e+01    -  7.39e-01 7.91e-01h  1
iter    objective    inf_pr   inf_du lg(mu)  ||d||  lg(rg) alpha_du alpha_pr  ls
 100 -3.9176979e-02 8.23e-02 5.97e+07  -6.0 2.77e+00    -  6.59e-01 6.81e-01h  1
 101 -3.9503485e-02 8.06e-03 2.99e+02  -6.0 3.88e+00    -  8.11e-01 1.00e+00h  1
 102 -4.0578858e-02 1.60e-02 1.17e+02  -6.0 1.18e+01    -  5.20e-01 1.00e+00h  1
 103 -4.2824671e-02 9.70e-02 8.96e+01  -6.0 2.70e+01    -  4.20e-01 6.74e-01h  1
 104 -4.4711735e-02 2.40e-01 4.74e+02  -6.0 2.95e+01    -  4.96e-01 9.18e-01f  1
 105 -4.6200660e-02 2.42e-01 6.56e+02  -6.0 1.03e+02    -  1.38e-02 2.19e-01h  1
 106 -4.7930642e-02 3.25e-01 2.57e+02  -6.0 3.46e+01    -  6.25e-05 5.21e-01h  1
 107 -5.1585841e-02 7.93e-01 4.59e+02  -6.0 2.65e+01    -  4.81e-01 1.00e+00h  1
 108 -5.8274721e-02 1.37e+00 2.06e+02  -6.0 5.24e+01    -  3.58e-01 6.55e-01h  1
 109 -6.3848779e-02 1.93e+00 1.64e+02  -6.0 9.05e+01    -  7.36e-02 3.32e-01h  1
iter    objective    inf_pr   inf_du lg(mu)  ||d||  lg(rg) alpha_du alpha_pr  ls
 110 -6.5360885e-02 1.79e+00 1.24e+02  -6.0 1.18e+02    -  3.19e-01 9.36e-02h  1
 111 -7.0632463e-02 2.05e+00 8.84e+01  -6.0 1.60e+02    -  3.12e-01 2.58e-01h  1
 112 -7.8478706e-02 3.98e+00 1.25e+02  -6.0 2.03e+02    -  5.18e-01 4.18e-01h  1
 113 -8.4707550e-02 3.43e+00 1.24e+02  -6.0 3.06e+02    -  4.37e-01 3.91e-01h  1
 114 -8.5161540e-02 2.74e+00 9.41e+01  -6.0 2.77e+01  -6.6 4.56e-01 2.18e-01h  1
 115 -8.5419727e-02 2.50e+00 8.42e+01  -6.0 8.01e+01  -7.1 5.81e-01 8.68e-02h  1
 116 -8.8160689e-02 1.54e+00 6.66e+01  -6.0 4.03e+02  -7.6 1.19e-01 2.95e-01h  1
 117 -9.0509153e-02 1.38e+00 5.85e+01  -6.0 6.95e+02  -8.0 2.62e-01 9.99e-02h  1
 118 -9.3729554e-02 1.36e+00 1.45e+02  -6.0 1.20e+03  -8.5 7.28e-02 8.94e-02h  1
 119 -9.4074446e-02 2.11e+00 1.66e+02  -6.0 2.51e+04  -9.0 2.36e-05 1.33e-02h  1
iter    objective    inf_pr   inf_du lg(mu)  ||d||  lg(rg) alpha_du alpha_pr  ls
 120 -9.5453173e-02 1.96e+00 1.62e+02  -6.0 1.02e+03  -8.6 1.35e-01 7.04e-02h  1
 121 -9.8609949e-02 1.52e+00 1.28e+02  -6.0 4.33e+02  -8.1 7.36e-02 3.55e-01f  1
 122 -1.0113564e-01 2.81e+00 1.12e+02  -6.0 2.05e+03  -8.6 2.39e-01 1.52e-01h  1
 123 -1.0229933e-01 2.45e+00 9.87e+01  -6.0 5.25e+02  -8.2 3.96e-01 1.63e-01h  1
 124 -1.0282199e-01 2.47e+00 9.77e+01  -6.0 2.25e+03  -8.7 1.12e-01 3.57e-02h  1
 125 -1.0597469e-01 1.92e+01 8.33e+01  -6.0 6.18e+03  -9.1 1.66e-02 1.56e-01h  1
 126 -1.0685059e-01 1.85e+01 1.84e+02  -6.0 4.33e+03  -9.6 8.70e-02 3.72e-02h  1
 127 -1.0894469e-01 1.24e+01 6.63e+02  -6.0 8.21e+02  -8.3 1.11e-01 3.30e-01h  1
 128 -1.1122143e-01 9.90e+00 5.28e+02  -6.0 1.68e+03  -8.8 2.78e-01 2.07e-01h  1
 129 -1.1316614e-01 8.69e+00 4.58e+02  -6.0 2.02e+03  -9.2 5.59e-02 1.31e-01h  1
iter    objective    inf_pr   inf_du lg(mu)  ||d||  lg(rg) alpha_du alpha_pr  ls
 130 -1.1573954e-01 5.95e+00 2.70e+02  -6.0 6.28e+02  -8.8 6.24e-01 4.13e-01h  1
 131 -1.1728242e-01 8.80e+00 2.24e+02  -6.0 4.29e+03  -9.3 5.76e-02 1.39e-01h  1
 132 -1.1779296e-01 8.08e+00 1.86e+03  -6.0 7.68e+02  -8.9 7.62e-01 9.41e-02h  1
 133 -1.1889841e-01 3.98e+01 1.63e+03  -6.0 5.36e+04  -9.3 8.41e-03 2.32e-02h  1
 134 -1.2042315e-01 2.59e+01 1.17e+03  -6.0 6.54e+02  -8.9 7.52e-01 3.62e-01h  1
 135 -1.2155287e-01 2.30e+01 1.05e+03  -6.0 1.24e+03  -9.4 4.38e-02 1.17e-01h  1
 136 -1.2214710e-01 2.05e+01 8.37e+02  -6.0 1.06e+03  -9.0 2.27e-01 1.11e-01h  1
 137 -1.2357838e-01 1.74e+01 6.79e+02  -6.0 1.96e+03  -9.4 1.39e-01 1.73e-01h  1
 138 -1.2485019e-01 1.16e+01 1.59e+03  -6.0 5.69e+02  -9.0 2.60e-01 3.84e-01h  1
 139 -1.2627911e-01 5.04e+01 1.31e+03  -6.0 6.38e+03  -9.5 6.19e-02 2.37e-01h  1
iter    objective    inf_pr   inf_du lg(mu)  ||d||  lg(rg) alpha_du alpha_pr  ls
 140 -1.2692237e-01 3.35e+01 2.10e+03  -6.0 1.28e+03  -9.1 8.95e-02 5.09e-01h  1
 141 -1.2717713e-01 2.98e+01 1.49e+03  -6.0 1.26e+03  -8.6 5.62e-01 1.24e-01h  1
 142 -1.2778055e-01 2.57e+01 8.80e+02  -6.0 1.63e+03  -9.1 5.98e-01 2.25e-01h  1
 143 -1.2908603e-01 2.72e+01 6.44e+02  -6.0 2.29e+03  -9.6 5.70e-01 3.38e-01h  1
 144 -1.3002094e-01 2.58e+01 5.56e+02  -6.0 1.39e+04 -10.1 6.51e-02 8.81e-02h  1
 145 -1.3018568e-01 2.48e+01 5.34e+02  -6.0 3.54e+03  -9.7 1.79e-02 3.83e-02h  1
 146 -1.3129321e-01 2.42e+01 7.36e+02  -6.0 3.31e+04 -10.1 7.34e-03 4.17e-02h  1
 147 -1.3186435e-01 2.75e+01 1.81e+03  -6.0 4.19e+04    -  7.30e-05 1.51e-02h  1
 148 -1.3197560e-01 2.57e+01 1.43e+03  -6.0 9.79e+02  -9.7 3.51e-01 6.69e-02h  1
 149 -1.3235660e-01 2.08e+01 1.14e+03  -6.0 7.03e+02  -9.3 1.55e-05 2.04e-01h  1
iter    objective    inf_pr   inf_du lg(mu)  ||d||  lg(rg) alpha_du alpha_pr  ls
 150 -1.3240089e-01 2.02e+01 1.05e+03  -6.0 6.86e+02  -8.9 9.00e-02 2.79e-02h  1
 151 -1.3299911e-01 1.79e+01 2.55e+03  -6.0 4.78e+02  -9.3 8.14e-02 3.21e-01h  1
 152 -1.3312664e-01 1.71e+01 3.18e+03  -6.0 7.70e+01  -7.1 3.52e-03 1.55e-01h  1
 153 -1.3363009e-01 3.73e+00 4.61e+03  -6.0 1.07e+01  -6.7 5.08e-01 7.76e-01h  1
 154 -1.3411281e-01 7.27e+00 5.21e+03  -6.0 1.36e+01  -7.1 5.19e-01 6.31e-01h  1
 155 -1.3417071e-01 4.20e+00 5.49e+06  -6.0 3.87e+01  -7.6 2.39e-03 4.39e-01h  1
 156 -1.3412106e-01 2.49e-01 2.19e+03  -6.0 3.65e+01  -8.1 5.31e-01 1.00e+00h  1
 157 -1.3469403e-01 1.59e+00 2.57e+02  -6.0 1.05e+02  -8.6 1.00e+00 8.73e-01h  1
 158 -1.3448342e-01 1.34e+00 2.96e+01  -6.0 2.82e+02  -9.1 1.00e+00 9.46e-01H  1
 159 -1.3534209e-01 1.24e+00 4.24e+01  -6.0 6.75e+02  -9.5 4.33e-03 1.00e+00h  1
iter    objective    inf_pr   inf_du lg(mu)  ||d||  lg(rg) alpha_du alpha_pr  ls
 160 -1.3535301e-01 1.24e+00 7.78e+01  -6.0 2.02e+05    -  7.85e-03 8.79e-04h  1
 161 -1.3535042e-01 1.24e+00 1.35e+02  -6.0 1.63e+04  -9.1 3.77e-03 3.76e-04h  4
 162 -1.3548940e-01 2.55e+00 1.18e+02  -6.0 3.74e+02  -6.9 3.28e-04 1.00e+00h  1
 163 -1.3554683e-01 6.07e+00 6.85e+01  -6.0 2.68e+01  -7.4 1.00e+00 4.54e-01h  2
 164 -1.3582742e-01 1.28e+00 1.84e+01  -6.0 2.58e+01  -7.8 6.82e-01 8.39e-01h  1
 165 -1.3603334e-01 3.24e+00 3.16e+01  -6.0 4.59e+01  -8.3 8.17e-01 1.00e+00h  1
 166 -1.3612540e-01 2.16e+00 2.30e+01  -6.0 1.27e+02  -8.8 5.16e-01 3.18e-01h  1
 167 -1.3649580e-01 8.42e-01 1.14e+01  -6.0 3.16e+02  -9.3 1.00e+00 1.00e+00h  1
 168 -1.3655828e-01 1.38e+01 2.75e+01  -6.0 2.88e+04    -  1.53e-02 3.06e-02h  2
 169 -1.3692115e-01 1.39e+01 2.41e+01  -6.0 4.99e+03    -  1.62e-01 1.93e-01h  1
iter    objective    inf_pr   inf_du lg(mu)  ||d||  lg(rg) alpha_du alpha_pr  ls
 170 -1.3720320e-01 1.07e+01 7.71e+01  -6.0 3.95e+03    -  6.08e-02 3.27e-01h  1
 171 -1.3730093e-01 7.28e+00 8.51e+01  -6.0 3.40e+02  -9.7 2.03e-01 3.43e-01h  1
 172 -1.3743490e-01 1.16e+01 2.87e+01  -6.0 3.19e+03 -10.2 3.96e-01 1.94e-01h  1
 173 -1.3755880e-01 1.35e+01 1.47e+02  -6.0 2.31e+03    -  3.88e-01 2.38e-01h  1
 174 -1.3754865e-01 1.09e+01 1.45e+02  -6.0 2.99e+03    -  3.33e-01 8.02e-01h  1
 175 -1.3754255e-01 1.09e+01 1.44e+02  -6.0 1.71e+04 -10.7 6.79e-05 5.15e-04h  4
 176 -1.3755705e-01 1.09e+01 1.19e+02  -6.0 4.05e+02  -8.5 5.41e-02 3.79e-03h  1
 177 -1.3774253e-01 1.27e+01 1.14e+02  -6.0 3.34e+02  -8.9 1.17e-02 4.71e-02f  1
 178 -1.3768928e-01 9.83e+00 7.63e+01  -6.0 4.31e+01  -7.6 2.05e-01 2.27e-01h  1
 179 -1.3776469e-01 6.56e+00 1.08e+02  -6.0 3.25e+01  -8.1 1.00e+00 3.75e-01h  1
iter    objective    inf_pr   inf_du lg(mu)  ||d||  lg(rg) alpha_du alpha_pr  ls
 180 -1.3768716e-01 2.65e+00 3.80e+01  -6.0 4.94e+01  -8.6 3.89e-01 9.97e-01h  1
 181 -1.3766477e-01 2.19e+00 1.93e+02  -6.0 8.95e+02  -9.0 6.09e-03 8.89e-02h  1
 182 -1.3766977e-01 3.40e+00 2.10e+02  -6.0 4.70e+03  -9.5 2.15e-04 9.06e-02h  3
 183 -1.3746079e-01 1.28e+00 3.45e+02  -6.0 2.36e+02  -9.1 8.95e-02 1.00e+00h  1
 184 -1.3767069e-01 1.77e+01 3.46e+02  -6.0 2.10e+03  -8.7 1.14e-01 4.47e-01h  1
 185 -1.3767433e-01 1.68e+01 3.29e+02  -6.0 1.12e+01  -5.5 1.05e-01 5.01e-02h  1
 186 -1.3750534e-01 1.55e+01 3.01e+02  -6.0 6.62e+01  -6.0 2.58e-02 7.79e-02h  1
 187 -1.3749012e-01 1.48e+01 2.87e+02  -6.0 5.01e+00  -4.7 1.09e-01 4.46e-02h  2
 188 -1.3746545e-01 1.42e+01 2.75e+02  -6.0 1.04e+01  -5.2 4.09e-02 4.16e-02h  2
 189 -1.3746096e-01 1.39e+01 2.70e+02  -6.0 4.32e+00  -4.7 1.52e-01 1.84e-02h  5
iter    objective    inf_pr   inf_du lg(mu)  ||d||  lg(rg) alpha_du alpha_pr  ls
 190 -1.3745678e-01 1.38e+01 2.69e+02  -6.0 1.27e+01  -5.2 8.69e-02 5.95e-03h  5
 191 -1.3745663e-01 1.38e+01 2.68e+02  -6.0 4.15e+00  -4.8 2.26e-01 6.17e-04h 11
 192 -1.3736373e-01 1.29e+01 2.49e+02  -6.0 2.79e+01  -5.3 3.04e-02 6.49e-02h  1
 193 -1.3713734e-01 1.24e-01 2.02e+01  -6.0 3.77e+00  -4.8 1.00e+00 1.00e+00h  1
 194 -1.3719982e-01 1.22e-01 2.12e+00  -6.0 1.17e+00  -5.3 8.10e-01 1.00e+00h  1
 195 -1.3734571e-01 5.98e-01 1.93e+00  -6.0 3.17e+00  -5.8 7.42e-01 7.85e-01h  1
 196 -1.3741861e-01 5.32e-01 2.64e+00  -6.0 5.46e+00  -6.3 7.42e-01 2.05e-01h  1
 197 -1.3758314e-01 2.92e-01 1.67e+00  -6.0 1.11e+01  -6.7 8.21e-01 5.88e-01h  1
 198 -1.3763626e-01 2.41e-01 2.81e+00  -6.0 2.86e+01  -7.2 1.00e+00 2.34e-01h  1
 199 -1.3768738e-01 1.89e-01 2.13e+00  -6.0 4.95e+01  -7.7 1.00e+00 2.19e-01h  1
iter    objective    inf_pr   inf_du lg(mu)  ||d||  lg(rg) alpha_du alpha_pr  ls
 200 -1.3776298e-01 1.73e+00 1.57e+01  -6.0 4.85e+01  -8.2 3.21e-01 2.76e-01h  1
 201 -1.3766803e-01 3.22e-01 2.86e+00  -6.0 7.21e+01  -8.6 1.00e+00 8.57e-01h  1
 202 -1.3766700e-01 2.72e-01 7.29e+00  -6.0 1.22e+02  -9.1 3.91e-01 1.00e+00h  1
 203 -1.3761466e-01 3.68e+00 1.13e+01  -6.0 1.50e+04    -  4.96e-02 3.72e-02h  1
 204 -1.3758424e-01 3.66e+00 4.41e+01  -6.0 8.53e+03    -  1.95e-02 6.99e-03h  2
 205 -1.3754500e-01 3.25e+00 1.53e+01  -6.0 5.83e+02  -9.6 1.27e-02 1.29e-01h  1
 206 -1.3749784e-01 3.09e+00 3.10e+02  -6.0 3.28e+03    -  1.87e-01 4.81e-02h  1
 207 -1.3747823e-01 2.90e+00 1.87e+02  -6.0 1.84e+03    -  2.53e-01 6.42e-02h  1
 208 -1.3744254e-01 2.19e+00 1.45e+04  -6.0 7.71e+02    -  1.78e-02 6.63e-01h  1
 209 -1.3738196e-01 1.68e+00 5.02e+03  -6.0 4.65e+02    -  1.00e+00 6.56e-01h  1
iter    objective    inf_pr   inf_du lg(mu)  ||d||  lg(rg) alpha_du alpha_pr  ls
 210 -1.3734716e-01 1.10e+00 3.22e+03  -6.0 2.07e+02    -  1.00e+00 3.48e-01h  1
 211 -1.3739776e-01 1.87e+00 1.12e+01  -6.0 3.46e+02    -  2.59e-01 1.00e+00h  1
 212 -1.3738028e-01 1.51e-01 1.25e-01  -6.0 9.65e+01    -  1.00e+00 1.00e+00h  1
 213 -1.3739561e-01 5.31e-02 4.52e-01  -6.0 5.15e+01    -  1.00e+00 1.00e+00h  1
 214 -1.3739576e-01 2.74e-05 1.55e-04  -6.0 8.68e-01    -  1.00e+00 1.00e+00h  1
 215 -1.3739556e-01 4.94e-07 1.41e-04  -6.0 9.50e-01    -  1.00e+00 1.00e+00H  1
 216 -1.3739556e-01 5.07e-08 1.18e-07  -6.0 2.83e-02    -  1.00e+00 1.00e+00h  1
 217 -1.3796164e-01 8.28e+00 5.13e+01  -7.5 4.35e+03    -  9.21e-02 1.67e-01f  1
 218 -1.3812661e-01 8.17e+00 4.56e+01  -7.5 2.68e+03    -  3.29e-01 8.75e-02h  1
 219 -1.3848553e-01 6.35e+00 6.08e+01  -7.5 7.01e+02 -10.1 4.34e-01 2.75e-01h  1
iter    objective    inf_pr   inf_du lg(mu)  ||d||  lg(rg) alpha_du alpha_pr  ls
 220 -1.3873870e-01 1.31e+01 4.30e+01  -7.5 4.02e+03    -  1.16e-01 2.12e-01h  1
 221 -1.3882836e-01 1.11e+01 3.95e+01  -7.5 5.48e+02  -9.7 1.18e-01 1.48e-01h  1
 222 -1.3885479e-01 1.10e+01 4.03e+01  -7.5 9.29e+03 -10.1 2.12e-02 9.33e-03h  1
 223 -1.3907992e-01 5.78e+00 3.10e+01  -7.5 2.59e+02  -9.7 3.17e-01 4.79e-01h  1
 224 -1.3913299e-01 5.20e+00 2.96e+01  -7.5 2.25e+03    -  1.85e-01 1.01e-01h  1
 225 -1.3933095e-01 7.94e+00 3.46e+01  -7.5 2.15e+03    -  1.20e-01 4.15e-01h  1
 226 -1.3941709e-01 7.15e+00 3.53e+01  -7.5 1.92e+03    -  7.34e-02 1.42e-01h  1
 227 -1.3946693e-01 6.31e+00 2.27e+01  -7.5 1.80e+03    -  4.44e-01 1.66e-01h  1
 228 -1.3948624e-01 6.00e+00 1.45e+01  -7.5 3.38e+03    -  3.14e-04 5.35e-02h  1
 229 -1.3955686e-01 4.28e+00 2.48e+01  -7.5 2.40e+02 -10.2 4.96e-02 2.93e-01h  1
iter    objective    inf_pr   inf_du lg(mu)  ||d||  lg(rg) alpha_du alpha_pr  ls
 230 -1.3956353e-01 4.20e+00 1.42e+01  -7.5 2.84e+03    -  8.49e-02 1.98e-02f  1
 231 -1.3980277e-01 7.81e+00 6.77e+01  -7.5 1.25e+03    -  6.18e-01 8.90e-01h  1
 232 -1.3992565e-01 3.51e+00 3.04e+02  -7.5 3.23e+02    -  1.28e-01 5.52e-01h  1
 233 -1.3999747e-01 2.92e+00 2.54e+02  -7.5 5.27e+02    -  2.81e-01 3.16e-01h  1
 234 -1.4010096e-01 1.78e+00 2.77e+02  -7.5 2.21e+02    -  7.44e-01 4.60e-01h  1
 235 -1.4017284e-01 1.27e+00 6.59e+02  -7.5 3.81e+02    -  6.38e-01 3.25e-01h  1
 236 -1.4026838e-01 2.08e+01 2.57e+02  -7.5 3.07e+03    -  8.55e-02 4.27e-01h  1
 237 -1.4029469e-01 1.84e+01 1.04e+02  -7.5 3.76e+02    -  1.48e-01 1.17e-01h  1
 238 -1.4033459e-01 1.53e+01 1.43e+03  -7.5 6.49e+02    -  5.16e-01 1.75e-01h  1
 239 -1.4040861e-01 1.46e+01 2.91e+02  -7.5 1.79e+03    -  1.14e-01 3.17e-01h  1
iter    objective    inf_pr   inf_du lg(mu)  ||d||  lg(rg) alpha_du alpha_pr  ls
 240 -1.4045349e-01 1.62e+01 2.41e+03  -7.5 3.08e+03    -  5.03e-01 1.85e-01h  1
 241 -1.4046170e-01 1.87e+01 1.99e+03  -7.5 1.96e+04    -  1.42e-01 3.58e-02h  1
 242 -1.4046350e-01 1.86e+01 5.79e+03  -7.5 6.56e+03    -  6.60e-02 7.33e-03h  1
 243 -1.4047642e-01 1.64e+01 5.68e+03  -7.5 1.08e+03    -  4.17e-02 1.30e-01h  1
 244 -1.4048854e-01 1.19e+01 1.92e+03  -7.5 1.03e+03    -  2.97e-03 4.72e-01h  1
 245 -1.4049157e-01 1.12e+01 1.90e+03  -7.5 8.11e+03    -  7.46e-04 1.24e-02H  1
 246 -1.4050384e-01 2.10e+01 9.61e+02  -7.5 2.57e+03    -  9.07e-02 4.02e-01h  1
 247 -1.4051179e-01 1.85e+01 8.73e+02  -7.5 2.08e+03    -  3.04e-01 1.41e-01h  1
 248 -1.4054906e-01 7.09e+01 7.34e+02  -7.5 2.43e+03    -  6.25e-01 9.14e-01h  1
 249 -1.4054837e-01 6.98e+01 7.45e+02  -7.5 2.48e+03    -  6.13e-03 1.52e-02h  1
iter    objective    inf_pr   inf_du lg(mu)  ||d||  lg(rg) alpha_du alpha_pr  ls
 250 -1.4055876e-01 5.73e+01 5.25e+02  -7.5 2.45e+03    -  2.11e-02 3.34e-01h  1
 251 -1.4053564e-01 1.02e+01 4.07e+03  -7.5 2.36e+03    -  2.07e-02 7.98e-01H  1
 252 -1.4055214e-01 8.90e+00 2.70e+03  -7.5 3.56e+03    -  2.33e-01 2.92e-01h  1
 253 -1.4054749e-01 3.13e+00 1.06e+03  -7.5 5.21e+02 -10.7 2.74e-01 1.00e+00h  1
 254 -1.4058448e-01 6.21e+01 2.95e+02  -7.5 4.11e+03    -  4.75e-01 4.81e-01h  1
 255 -1.4060353e-01 4.39e+01 2.16e+02  -7.5 1.64e+03    -  3.16e-02 7.61e-01h  1
 256 -1.4060092e-01 3.99e-02 2.00e+02  -7.5 9.02e+01    -  3.09e-02 1.00e+00h  1
 257 -1.4060270e-01 3.53e-01 5.00e+00  -7.5 1.38e+02 -10.2 7.95e-01 1.00e+00h  1
 258 -1.4061831e-01 2.70e+01 9.98e+01  -7.5 8.62e+05    -  5.68e-04 1.39e-03h  1
 259 -1.4061082e-01 1.97e+01 6.51e+01  -7.5 1.14e+03    -  1.00e+00 5.00e-01h  2
iter    objective    inf_pr   inf_du lg(mu)  ||d||  lg(rg) alpha_du alpha_pr  ls
 260 -1.4061936e-01 1.22e+01 4.49e+01  -7.5 8.02e+02    -  3.13e-01 8.17e-01h  1
 261 -1.4062009e-01 5.32e-02 2.41e+00  -7.5 5.02e+01    -  1.00e+00 1.00e+00h  1
 262 -1.4062000e-01 8.00e-04 2.19e-02  -7.5 6.36e+00    -  1.00e+00 1.00e+00h  1
 263 -1.4062001e-01 1.77e-05 1.30e-04  -7.5 9.38e-01    -  1.00e+00 1.00e+00h  1
 264 -1.4062001e-01 1.48e-08 9.92e-08  -7.5 2.71e-02    -  1.00e+00 1.00e+00h  1
 265 -1.4062327e-01 9.23e-02 2.40e+00  -9.0 2.59e+02    -  2.88e-01 3.04e-01h  1
 266 -1.4063018e-01 2.10e+01 7.95e+01  -9.0 1.17e+05    -  2.17e-02 8.78e-03h  1
 267 -1.4063789e-01 2.77e+01 1.19e+02  -9.0 3.62e+03    -  1.86e-01 2.32e-01h  1
 268 -1.4064254e-01 2.74e+01 1.26e+02  -9.0 4.34e+03    -  2.91e-01 1.62e-01h  1
 269 -1.4064966e-01 4.42e+01 1.33e+02  -9.0 3.43e+03    -  3.20e-01 3.66e-01h  1
iter    objective    inf_pr   inf_du lg(mu)  ||d||  lg(rg) alpha_du alpha_pr  ls
 270 -1.4065356e-01 4.07e+01 2.54e+01  -9.0 1.55e+03    -  1.00e-02 8.19e-01h  1
 271 -1.4065068e-01 1.55e-01 7.70e+00  -9.0 1.02e+02    -  4.01e-02 1.00e+00h  1
 272 -1.4065131e-01 8.47e-02 7.37e-01  -9.0 6.42e+01    -  1.00e+00 1.00e+00h  1
 273 -1.4065129e-01 2.12e-02 8.98e-02  -9.0 3.22e+01    -  1.00e+00 1.00e+00h  1
 274 -1.4065129e-01 6.76e-08 1.75e-05  -9.0 3.78e-02    -  1.00e+00 1.00e+00h  1
 275 -1.4065129e-01 3.14e-10 2.60e-12  -9.0 2.81e-05    -  1.00e+00 1.00e+00h  1

Number of Iterations....: 275

                                   (scaled)                 (unscaled)
Objective...............:  -1.4065129089316375e-01   -1.4065129089316375e-01
Dual infeasibility......:   2.6041668821363828e-12    2.6041668821363828e-12
Constraint violation....:   3.1397298281242436e-10    3.1397298281242436e-10
Complementarity.........:   9.0909098743538625e-10    9.0909098743538625e-10
Overall NLP error.......:   9.0909098743538625e-10    9.0909098743538625e-10


Number of objective function evaluations             = 712
Number of objective gradient evaluations             = 274
Number of equality constraint evaluations            = 712
Number of inequality constraint evaluations          = 713
Number of equality constraint Jacobian evaluations   = 279
Number of inequality constraint Jacobian evaluations = 279
Number of Lagrangian Hessian evaluations             = 275
Total CPU secs in IPOPT (w/o function evaluations)   =    112.160
Total CPU secs in NLP function evaluations           =      5.563

EXIT: Optimal Solution Found.
